NAME : rnd34_20.tsp
TYPE : TSP
DIMENSION : 20
EDGE_WEIGHT_TYPE : EUC_2D
NODE_COORD_SECTION
0 873 134
1 625 292
2 921 69
3 644 597
4 409 856
5 245 12
6 346 34
7 949 526
8 910 898
9 680 284
10 337 516
11 859 934
12 399 592
13 103 214
14 944 402
15 425 841
16 79 514
17 707 619
18 920 363
19 272 134
